
  32    4
  10   10   10   10

   0   0   0   0   0   3 2 8 9 
   9   1   1   1   0   1 3 
   9   0   6   2   1   2 21 4 
   3   5   4   0   3   1 5 
   3   5   2   0   3   3 28 11 6 
   2   0   3   4   4   1 7 
   3   0   2   1   4   3 23 14 10 
   8   3   0   4   6   3 23 14 12 
   4   3   8   2   0   1 11 
  10   0   6   4   5   2 17 12 
   7   2   3   5   0   2 17 12 
   7   9   0   1   6   2 15 13 
   6   4   3   0   3   2 31 16 
   8   0   4   7   4   2 17 15 
  10   3   4  10   0   1 18 
   6   0   4   8   5   1 19 
   7   0   1   2   7   1 18 
   2   2   0   7   2   1 20 
   6   0   8   7   5   1 20 
   5   0   3   6   4   1 22 
  10   5   0   7   3   1 22 
   8   5   4   0   2   1 24 
   1   7   0   1   7   1 24 
   8   0   4   5   3   1 25 
   7   4   0   2   4   1 26 
  10   0   4   2   3   2 30 27 
   2   0   6   3   4   1 29 
   7   2   0   5   6   1 29 
   5   4   0   2   1   1 32
   5   4   0   4   5   1 32
   6   4   4   2   0   1 32
   0   0   0   0   0   0 
